<?xml version = "1.0" encoding="UTF-8" standalone="yes"?>
<CPLEXSolution version="1.2">
 <header
   problemName="ILOG.CPLEX"
   solutionName="incumbent"
   solutionIndex="-1"
   objectiveValue="3"
   solutionTypeValue="3"
   solutionTypeString="primal"
   solutionStatusValue="101"
   solutionStatusString="integer optimal solution"
   solutionMethodString="mip"
   primalFeasible="1"
   dualFeasible="1"
   MIPNodes="0"
   MIPIterations="18"
   writeLevel="1"/>
 <quality
   epInt="1.0000000000000001e-05"
   epRHS="9.9999999999999995e-07"
   maxIntInfeas="0"
   maxPrimalInfeas="0"
   maxX="1"
   maxSlack="36.003"/>
 <linearConstraints>
  <constraint name="C1_0" index="0" slack="0"/>
  <constraint name="C1_1" index="1" slack="0"/>
  <constraint name="C1_2" index="2" slack="0"/>
  <constraint name="C1_3" index="3" slack="0"/>
  <constraint name="C1_4" index="4" slack="0"/>
  <constraint name="2_0_0_0_1" index="5" slack="-3.9969999999999972"/>
  <constraint name="2_0_0_0_2" index="6" slack="-0.99799999999999667"/>
  <constraint name="2_0_0_0_3" index="7" slack="-9.9969999999999999"/>
  <constraint name="2_0_0_0_4" index="8" slack="-3.9999999999999991"/>
  <constraint name="2_0_0_1_1" index="9" slack="-6.992999999999995"/>
  <constraint name="2_0_0_1_2" index="10" slack="-8.9939999999999944"/>
  <constraint name="2_0_0_1_3" index="11" slack="-8"/>
  <constraint name="2_0_1_0_1" index="12" slack="-3.9969999999999972"/>
  <constraint name="2_0_1_0_2" index="13" slack="-0.99799999999999667"/>
  <constraint name="2_0_1_0_3" index="14" slack="-9.9969999999999999"/>
  <constraint name="2_0_1_0_4" index="15" slack="-3.9999999999999991"/>
  <constraint name="2_0_1_1_1" index="16" slack="-11.007000000000005"/>
  <constraint name="2_0_1_1_2" index="17" slack="-20.001000000000001"/>
  <constraint name="2_0_1_1_3" index="18" slack="-19.007000000000005"/>
  <constraint name="2_0_2_0_1" index="19" slack="-6.9989999999999988"/>
  <constraint name="2_0_2_0_2" index="20" slack="-12.999000000000002"/>
  <constraint name="2_0_2_0_3" index="21" slack="-11.002000000000002"/>
  <constraint name="2_0_2_0_4" index="22" slack="-7.0020000000000024"/>
  <constraint name="2_0_2_1_1" index="23" slack="-13.993999999999993"/>
  <constraint name="2_0_3_0_1" index="24" slack="-6.9989999999999988"/>
  <constraint name="2_0_3_0_2" index="25" slack="-12.999000000000002"/>
  <constraint name="2_0_3_0_3" index="26" slack="-11.002000000000002"/>
  <constraint name="2_0_3_0_4" index="27" slack="-7.0020000000000024"/>
  <constraint name="2_0_3_1_1" index="28" slack="-32.006"/>
  <constraint name="2_0_4_0_1" index="29" slack="-7.0009999999999994"/>
  <constraint name="2_0_4_0_2" index="30" slack="-16"/>
  <constraint name="2_0_4_0_3" index="31" slack="-14.003000000000004"/>
  <constraint name="2_0_4_0_4" index="32" slack="-10.003000000000002"/>
  <constraint name="2_0_4_1_1" index="33" slack="-9.0009999999999994"/>
  <constraint name="2_0_4_1_2" index="34" slack="-13.997999999999998"/>
  <constraint name="2_0_4_1_3" index="35" slack="-9.0040000000000013"/>
  <constraint name="2_0_5_0_1" index="36" slack="0"/>
  <constraint name="2_0_5_0_2" index="37" slack="-2.9990000000000023"/>
  <constraint name="2_0_5_0_3" index="38" slack="-5.0020000000000033"/>
  <constraint name="2_0_5_0_4" index="39" slack="-3.0020000000000024"/>
  <constraint name="2_0_5_1_1" index="40" slack="-5.9959999999999987"/>
  <constraint name="2_0_5_1_2" index="41" slack="-3.9980000000000011"/>
  <constraint name="2_0_5_1_3" index="42" slack="-4.0020000000000024"/>
  <constraint name="2_1_0_0_1" index="43" slack="-3.9969999999999963"/>
  <constraint name="2_1_0_0_2" index="44" slack="0"/>
  <constraint name="2_1_0_0_3" index="45" slack="0"/>
  <constraint name="2_1_0_0_4" index="46" slack="0"/>
  <constraint name="2_1_0_0_5" index="47" slack="0"/>
  <constraint name="2_1_0_0_6" index="48" slack="-4"/>
  <constraint name="2_1_0_1_1" index="49" slack="-3.9969999999999963"/>
  <constraint name="2_1_0_1_2" index="50" slack="0"/>
  <constraint name="2_1_0_1_3" index="51" slack="0"/>
  <constraint name="2_1_0_1_4" index="52" slack="-4"/>
  <constraint name="2_1_0_1_5" index="53" slack="-4.9979999999999976"/>
  <constraint name="2_1_0_2_1" index="54" slack="-23.006"/>
  <constraint name="2_1_1_0_1" index="55" slack="-3.9969999999999963"/>
  <constraint name="2_1_1_0_2" index="56" slack="0"/>
  <constraint name="2_1_1_0_3" index="57" slack="0"/>
  <constraint name="2_1_1_0_4" index="58" slack="0"/>
  <constraint name="2_1_1_0_5" index="59" slack="0"/>
  <constraint name="2_1_1_0_6" index="60" slack="-4"/>
  <constraint name="2_1_1_1_1" index="61" slack="-6.0030000000000019"/>
  <constraint name="2_1_1_1_2" index="62" slack="-6.0030000000000019"/>
  <constraint name="2_1_1_1_3" index="63" slack="-6.0030000000000019"/>
  <constraint name="2_1_1_1_4" index="64" slack="-10.003000000000002"/>
  <constraint name="2_1_1_1_5" index="65" slack="-11.001000000000001"/>
  <constraint name="2_1_1_2_1" index="66" slack="0"/>
  <constraint name="2_1_1_2_2" index="67" slack="0"/>
  <constraint name="2_1_1_2_3" index="68" slack="-6.992999999999995"/>
  <constraint name="2_1_1_2_4" index="69" slack="-4"/>
  <constraint name="2_1_2_0_1" index="70" slack="-3.9969999999999963"/>
  <constraint name="2_1_2_0_2" index="71" slack="0"/>
  <constraint name="2_1_2_0_3" index="72" slack="0"/>
  <constraint name="2_1_2_0_4" index="73" slack="0"/>
  <constraint name="2_1_2_0_5" index="74" slack="0"/>
  <constraint name="2_1_2_0_6" index="75" slack="-4"/>
  <constraint name="2_1_2_1_1" index="76" slack="-12.990999999999993"/>
  <constraint name="2_1_2_1_2" index="77" slack="0"/>
  <constraint name="2_1_2_1_3" index="78" slack="-5.0030000000000028"/>
  <constraint name="2_1_2_2_1" index="79" slack="-23.006"/>
  <constraint name="2_1_3_0_1" index="80" slack="-3.9969999999999963"/>
  <constraint name="2_1_3_0_2" index="81" slack="0"/>
  <constraint name="2_1_3_0_3" index="82" slack="0"/>
  <constraint name="2_1_3_0_4" index="83" slack="0"/>
  <constraint name="2_1_3_0_5" index="84" slack="0"/>
  <constraint name="2_1_3_0_6" index="85" slack="-4"/>
  <constraint name="2_1_3_1_1" index="86" slack="-15.009000000000007"/>
  <constraint name="2_1_3_1_2" index="87" slack="-15.009000000000007"/>
  <constraint name="2_1_3_1_3" index="88" slack="-20.012000000000008"/>
  <constraint name="2_1_3_2_1" index="89" slack="0"/>
  <constraint name="2_1_4_0_1" index="90" slack="-6.0030000000000019"/>
  <constraint name="2_1_4_0_2" index="91" slack="-6.0030000000000019"/>
  <constraint name="2_1_4_0_3" index="92" slack="-6.0030000000000019"/>
  <constraint name="2_1_4_0_4" index="93" slack="-6.0030000000000019"/>
  <constraint name="2_1_4_0_5" index="94" slack="-6.0030000000000019"/>
  <constraint name="2_1_4_0_6" index="95" slack="-10.003000000000002"/>
  <constraint name="2_1_4_1_1" index="96" slack="0"/>
  <constraint name="2_1_4_1_2" index="97" slack="0"/>
  <constraint name="2_1_4_1_3" index="98" slack="0"/>
  <constraint name="2_1_4_1_4" index="99" slack="0"/>
  <constraint name="2_1_4_1_5" index="100" slack="-4.9979999999999976"/>
  <constraint name="2_1_4_2_1" index="101" slack="0"/>
  <constraint name="2_1_4_2_2" index="102" slack="0"/>
  <constraint name="2_1_4_2_3" index="103" slack="-6.992999999999995"/>
  <constraint name="2_1_4_2_4" index="104" slack="-4"/>
  <constraint name="2_1_5_0_1" index="105" slack="-1.0020000000000024"/>
  <constraint name="2_1_5_0_2" index="106" slack="-1.0020000000000024"/>
  <constraint name="2_1_5_0_3" index="107" slack="-1.0020000000000024"/>
  <constraint name="2_1_5_0_4" index="108" slack="-1.0020000000000024"/>
  <constraint name="2_1_5_0_5" index="109" slack="-1.0020000000000024"/>
  <constraint name="2_1_5_0_6" index="110" slack="-3.0020000000000024"/>
  <constraint name="2_1_5_1_1" index="111" slack="0"/>
  <constraint name="2_1_5_1_2" index="112" slack="0"/>
  <constraint name="2_1_5_1_3" index="113" slack="0"/>
  <constraint name="2_1_5_1_4" index="114" slack="0"/>
  <constraint name="2_1_5_1_5" index="115" slack="-4.9979999999999976"/>
  <constraint name="2_1_5_2_1" index="116" slack="0"/>
  <constraint name="2_2_0_0_1" index="117" slack="-4.9949999999999939"/>
  <constraint name="2_2_0_0_2" index="118" slack="-9.9969999999999981"/>
  <constraint name="2_2_0_0_3" index="119" slack="0"/>
  <constraint name="2_2_0_0_4" index="120" slack="0"/>
  <constraint name="2_2_0_0_5" index="121" slack="0"/>
  <constraint name="2_2_0_0_6" index="122" slack="-4"/>
  <constraint name="2_2_0_1_1" index="123" slack="0"/>
  <constraint name="2_2_0_1_2" index="124" slack="-0.0010000000000012221"/>
  <constraint name="2_2_0_1_3" index="125" slack="-0.0050000000000061107"/>
  <constraint name="2_2_0_1_4" index="126" slack="-0.0050000000000061107"/>
  <constraint name="2_2_0_1_5" index="127" slack="-2.0050000000000061"/>
  <constraint name="2_2_1_0_1" index="128" slack="-18.99799999999999"/>
  <constraint name="2_2_1_0_2" index="129" slack="-14.003"/>
  <constraint name="2_2_1_0_3" index="130" slack="-14.003"/>
  <constraint name="2_2_1_0_4" index="131" slack="-14.003"/>
  <constraint name="2_2_1_0_5" index="132" slack="-14.003"/>
  <constraint name="2_2_1_0_6" index="133" slack="-18.003"/>
  <constraint name="2_2_1_1_1" index="134" slack="0"/>
  <constraint name="2_3_0_0_1" index="135" slack="0"/>
  <constraint name="2_3_0_0_2" index="136" slack="0"/>
  <constraint name="2_3_0_0_3" index="137" slack="-4.0030000000000028"/>
  <constraint name="2_3_0_1_1" index="138" slack="-6.0050000000000026"/>
  <constraint name="2_3_1_0_1" index="139" slack="-12.999000000000001"/>
  <constraint name="2_3_1_0_2" index="140" slack="-18"/>
  <constraint name="2_3_1_0_3" index="141" slack="-12.003000000000002"/>
  <constraint name="2_4_0_0_1" index="142" slack="-9.0040000000000013"/>
  <constraint name="2_4_0_0_2" index="143" slack="-19.998999999999995"/>
  <constraint name="2_4_0_0_3" index="144" slack="-9.0040000000000013"/>
  <constraint name="2_4_0_0_4" index="145" slack="-19.004000000000001"/>
  <constraint name="2_4_0_0_5" index="146" slack="-13.000999999999999"/>
  <constraint name="2_4_0_0_6" index="147" slack="-9.0040000000000013"/>
  <constraint name="2_4_0_1_1" index="148" slack="-11.007000000000005"/>
  <constraint name="2_4_0_1_2" index="149" slack="-21.004000000000001"/>
  <constraint name="2_4_0_1_3" index="150" slack="-11.007000000000005"/>
  <constraint name="2_4_0_1_4" index="151" slack="-23.007000000000005"/>
  <constraint name="2_4_0_1_5" index="152" slack="-11.007000000000005"/>
  <constraint name="2_4_0_2_1" index="153" slack="-24.002999999999997"/>
  <constraint name="2_4_0_2_2" index="154" slack="-24.002999999999997"/>
  <constraint name="2_4_0_2_3" index="155" slack="-36.003"/>
  <constraint name="2_4_0_2_4" index="156" slack="-24.002999999999997"/>
  <constraint name="2_4_1_0_1" index="157" slack="-9.0040000000000013"/>
  <constraint name="2_4_1_0_2" index="158" slack="-19.998999999999995"/>
  <constraint name="2_4_1_0_3" index="159" slack="-9.0040000000000013"/>
  <constraint name="2_4_1_0_4" index="160" slack="-19.004000000000001"/>
  <constraint name="2_4_1_0_5" index="161" slack="-13.000999999999999"/>
  <constraint name="2_4_1_0_6" index="162" slack="-9.0040000000000013"/>
  <constraint name="2_4_1_1_1" index="163" slack="-14.003"/>
  <constraint name="2_4_1_1_2" index="164" slack="-14.003"/>
  <constraint name="2_4_1_1_3" index="165" slack="-26.002999999999997"/>
  <constraint name="2_4_1_1_4" index="166" slack="-18.995999999999992"/>
  <constraint name="2_4_1_1_5" index="167" slack="-14.003"/>
  <constraint name="2_4_2_0_1" index="168" slack="-2.0030000000000028"/>
  <constraint name="2_4_2_0_2" index="169" slack="-12.997999999999996"/>
  <constraint name="2_4_2_0_3" index="170" slack="-2.0030000000000028"/>
  <constraint name="2_4_2_0_4" index="171" slack="-12.003000000000002"/>
  <constraint name="2_4_2_0_5" index="172" slack="-4.9990000000000006"/>
  <constraint name="2_4_2_0_6" index="173" slack="-2.0030000000000028"/>
  <constraint name="2_4_2_1_1" index="174" slack="-9.0040000000000013"/>
  <constraint name="2_4_2_1_2" index="175" slack="-22.997999999999994"/>
  <constraint name="2_4_2_1_3" index="176" slack="-9.0040000000000013"/>
  <constraint name="2_4_2_1_4" index="177" slack="-19.004000000000001"/>
  <constraint name="2_4_2_1_5" index="178" slack="-9.0040000000000013"/>
  <constraint name="2_4_2_2_1" index="179" slack="-24.002999999999997"/>
  <constraint name="2_4_2_2_2" index="180" slack="-24.002999999999997"/>
  <constraint name="2_4_2_2_3" index="181" slack="-36.003"/>
  <constraint name="2_4_2_2_4" index="182" slack="-24.002999999999997"/>
  <constraint name="2_4_3_0_1" index="183" slack="-2.0030000000000028"/>
  <constraint name="2_4_3_0_2" index="184" slack="-12.997999999999996"/>
  <constraint name="2_4_3_0_3" index="185" slack="-2.0030000000000028"/>
  <constraint name="2_4_3_0_4" index="186" slack="-12.003000000000002"/>
  <constraint name="2_4_3_0_5" index="187" slack="-4.9990000000000006"/>
  <constraint name="2_4_3_0_6" index="188" slack="-2.0030000000000028"/>
  <constraint name="2_4_3_1_1" index="189" slack="-22.006"/>
  <constraint name="2_4_3_1_2" index="190" slack="-22.006"/>
  <constraint name="2_4_3_1_3" index="191" slack="-32.006"/>
  <constraint name="2_4_3_1_4" index="192" slack="-25.001999999999999"/>
  <constraint name="2_4_3_1_5" index="193" slack="-22.006"/>
  <constraint name="2_4_4_0_1" index="194" slack="-17.005000000000003"/>
  <constraint name="2_4_4_0_2" index="195" slack="-17.005000000000003"/>
  <constraint name="2_4_4_0_3" index="196" slack="-27.004999999999999"/>
  <constraint name="2_4_4_0_4" index="197" slack="-21.001999999999995"/>
  <constraint name="2_4_4_0_5" index="198" slack="-20.000999999999998"/>
  <constraint name="2_4_4_0_6" index="199" slack="-17.005000000000003"/>
  <constraint name="2_4_4_1_1" index="200" slack="-5.0040000000000013"/>
  <constraint name="2_4_4_1_2" index="201" slack="-5.0040000000000013"/>
  <constraint name="2_4_4_1_3" index="202" slack="-13.004000000000001"/>
  <constraint name="2_4_4_1_4" index="203" slack="-17.99499999999999"/>
  <constraint name="2_4_4_1_5" index="204" slack="-5.0040000000000013"/>
  <constraint name="2_4_5_0_1" index="205" slack="-3.0040000000000049"/>
  <constraint name="2_4_5_0_2" index="206" slack="-3.0040000000000049"/>
  <constraint name="2_4_5_0_3" index="207" slack="-8.0040000000000013"/>
  <constraint name="2_4_5_0_4" index="208" slack="-4.0009999999999977"/>
  <constraint name="2_4_5_0_5" index="209" slack="0"/>
  <constraint name="2_4_5_0_6" index="210" slack="-3.0040000000000049"/>
  <constraint name="2_4_5_1_1" index="211" slack="-1.0080000000000062"/>
  <constraint name="2_4_5_1_2" index="212" slack="-1.0080000000000062"/>
  <constraint name="2_4_5_1_3" index="213" slack="-5.0080000000000062"/>
  <constraint name="2_4_5_1_4" index="214" slack="-1.0040000000000049"/>
  <constraint name="2_4_5_1_5" index="215" slack="-1.0080000000000062"/>
  <constraint name="c217" index="216" slack="0"/>
  <constraint name="c218" index="217" slack="-2"/>
  <constraint name="c219" index="218" slack="-2"/>
  <constraint name="c220" index="219" slack="0"/>
  <constraint name="c221" index="220" slack="0"/>
  <constraint name="c222" index="221" slack="-2"/>
  <constraint name="c223" index="222" slack="0"/>
  <constraint name="c224" index="223" slack="-2"/>
  <constraint name="c225" index="224" slack="-2"/>
  <constraint name="c226" index="225" slack="0"/>
  <constraint name="c227" index="226" slack="0"/>
  <constraint name="c228" index="227" slack="-2"/>
  <constraint name="c229" index="228" slack="0"/>
  <constraint name="c230" index="229" slack="-2"/>
  <constraint name="c231" index="230" slack="0"/>
  <constraint name="c232" index="231" slack="-2"/>
  <constraint name="c233" index="232" slack="-2"/>
  <constraint name="c234" index="233" slack="0"/>
  <constraint name="c235" index="234" slack="0"/>
  <constraint name="c236" index="235" slack="-2"/>
  <constraint name="c237" index="236" slack="-2"/>
  <constraint name="c238" index="237" slack="0"/>
  <constraint name="c239" index="238" slack="0"/>
  <constraint name="c240" index="239" slack="-2"/>
  <constraint name="c241" index="240" slack="0"/>
  <constraint name="c242" index="241" slack="-2"/>
  <constraint name="c243" index="242" slack="0"/>
  <constraint name="c244" index="243" slack="-2"/>
  <constraint name="c245" index="244" slack="-1.9969999999999972"/>
  <constraint name="c246" index="245" slack="-0.0030000000000027782"/>
  <constraint name="c247" index="246" slack="-0.99399999999999533"/>
  <constraint name="c248" index="247" slack="-1.0060000000000047"/>
  <constraint name="c249" index="248" slack="-1.0030000000000037"/>
  <constraint name="c250" index="249" slack="-0.99699999999999633"/>
  <constraint name="c251" index="250" slack="-2"/>
  <constraint name="c252" index="251" slack="0"/>
  <constraint name="c253" index="252" slack="-2"/>
  <constraint name="c254" index="253" slack="0"/>
  <constraint name="c255" index="254" slack="0"/>
  <constraint name="c256" index="255" slack="-2"/>
  <constraint name="c257" index="256" slack="0"/>
  <constraint name="c258" index="257" slack="-2"/>
  <constraint name="c259" index="258" slack="-2"/>
  <constraint name="c260" index="259" slack="0"/>
  <constraint name="c261" index="260" slack="-0.99799999999999756"/>
  <constraint name="c262" index="261" slack="-1.0020000000000024"/>
  <constraint name="c263" index="262" slack="-2"/>
  <constraint name="c264" index="263" slack="0"/>
  <constraint name="c265" index="264" slack="0"/>
  <constraint name="c266" index="265" slack="-2"/>
  <constraint name="c267" index="266" slack="-2"/>
  <constraint name="c268" index="267" slack="0"/>
  <constraint name="c269" index="268" slack="0"/>
  <constraint name="c270" index="269" slack="-2"/>
  <constraint name="c271" index="270" slack="-2"/>
  <constraint name="c272" index="271" slack="0"/>
  <constraint name="c273" index="272" slack="0"/>
  <constraint name="c274" index="273" slack="-2"/>
  <constraint name="c275" index="274" slack="-2"/>
  <constraint name="c276" index="275" slack="0"/>
  <constraint name="c277" index="276" slack="-0.99599999999999778"/>
  <constraint name="c278" index="277" slack="-1.0040000000000022"/>
  <constraint name="c279" index="278" slack="0"/>
  <constraint name="c280" index="279" slack="-2"/>
  <constraint name="c281" index="280" slack="0"/>
  <constraint name="c282" index="281" slack="-2"/>
 </linearConstraints>
 <variables>
  <variable name="s_2_5" index="0" value="0"/>
  <variable name="s_2_4" index="1" value="0"/>
  <variable name="s_2_3" index="2" value="0"/>
  <variable name="s_2_2" index="3" value="0"/>
  <variable name="s_2_1" index="4" value="0"/>
  <variable name="s_2_0" index="5" value="1"/>
  <variable name="s_4_5" index="6" value="0"/>
  <variable name="s_4_4" index="7" value="0"/>
  <variable name="s_4_3" index="8" value="0"/>
  <variable name="s_4_2" index="9" value="0"/>
  <variable name="s_4_1" index="10" value="0"/>
  <variable name="s_4_0" index="11" value="1"/>
  <variable name="s_1_1" index="12" value="1"/>
  <variable name="s_1_0" index="13" value="0"/>
  <variable name="s_0_1" index="14" value="1"/>
  <variable name="s_0_0" index="15" value="0"/>
  <variable name="s_3_5" index="16" value="0"/>
  <variable name="s_3_4" index="17" value="0"/>
  <variable name="s_3_3" index="18" value="0"/>
  <variable name="s_3_2" index="19" value="0"/>
  <variable name="s_3_1" index="20" value="0"/>
  <variable name="s_3_0" index="21" value="1"/>
  <variable name="g_0" index="22" value="1"/>
  <variable name="g_1" index="23" value="-1"/>
  <variable name="g_2" index="24" value="1"/>
  <variable name="g_3" index="25" value="1"/>
  <variable name="g_4" index="26" value="-1"/>
  <variable name="g_5" index="27" value="1"/>
  <variable name="g_6" index="28" value="1"/>
  <variable name="g_7" index="29" value="1"/>
  <variable name="g_8" index="30" value="-1"/>
  <variable name="g_9" index="31" value="1"/>
  <variable name="g_10" index="32" value="-1"/>
  <variable name="g_11" index="33" value="1"/>
  <variable name="g_12" index="34" value="1"/>
  <variable name="g_13" index="35" value="1"/>
  <variable name="g_14" index="36" value="-0.99699999999999722"/>
  <variable name="g_15" index="37" value="0.0060000000000046683"/>
  <variable name="g_16" index="38" value="-0.0030000000000036664"/>
  <variable name="g_17" index="39" value="-1"/>
  <variable name="g_18" index="40" value="-1"/>
  <variable name="g_19" index="41" value="1"/>
  <variable name="g_20" index="42" value="1"/>
  <variable name="g_21" index="43" value="-1"/>
  <variable name="g_22" index="44" value="0.0020000000000024443"/>
  <variable name="g_23" index="45" value="-1"/>
  <variable name="g_24" index="46" value="1"/>
  <variable name="g_25" index="47" value="-1"/>
  <variable name="g_26" index="48" value="1"/>
  <variable name="g_27" index="49" value="-1"/>
  <variable name="g_28" index="50" value="1"/>
  <variable name="g_29" index="51" value="-1"/>
  <variable name="g_30" index="52" value="0.004000000000002224"/>
  <variable name="g_31" index="53" value="1"/>
  <variable name="g_32" index="54" value="1"/>
  <variable name="gamma_2_5_0" index="55" value="0"/>
  <variable name="gamma_2_5_1" index="56" value="0"/>
  <variable name="gamma_2_4_0" index="57" value="0"/>
  <variable name="gamma_2_4_1" index="58" value="0"/>
  <variable name="gamma_2_3_0" index="59" value="0"/>
  <variable name="gamma_2_3_1" index="60" value="0"/>
  <variable name="gamma_2_2_0" index="61" value="0"/>
  <variable name="gamma_2_2_1" index="62" value="0"/>
  <variable name="gamma_2_1_0" index="63" value="0"/>
  <variable name="gamma_2_1_1" index="64" value="0"/>
  <variable name="gamma_2_0_0" index="65" value="0"/>
  <variable name="gamma_2_0_1" index="66" value="0"/>
  <variable name="gamma_4_5_0" index="67" value="0"/>
  <variable name="gamma_4_5_1" index="68" value="0"/>
  <variable name="gamma_4_5_2" index="69" value="0"/>
  <variable name="gamma_4_4_0" index="70" value="0"/>
  <variable name="gamma_4_4_1" index="71" value="0"/>
  <variable name="gamma_4_4_2" index="72" value="0"/>
  <variable name="gamma_4_3_0" index="73" value="0"/>
  <variable name="gamma_4_3_1" index="74" value="0"/>
  <variable name="gamma_4_3_2" index="75" value="0"/>
  <variable name="gamma_4_2_0" index="76" value="0"/>
  <variable name="gamma_4_2_1" index="77" value="0"/>
  <variable name="gamma_4_2_2" index="78" value="0"/>
  <variable name="gamma_4_1_0" index="79" value="0"/>
  <variable name="gamma_4_1_1" index="80" value="0"/>
  <variable name="gamma_4_1_2" index="81" value="0"/>
  <variable name="gamma_4_0_0" index="82" value="0"/>
  <variable name="gamma_4_0_1" index="83" value="1"/>
  <variable name="gamma_4_0_2" index="84" value="1"/>
  <variable name="gamma_1_1_0" index="85" value="1"/>
  <variable name="gamma_1_1_1" index="86" value="0"/>
  <variable name="gamma_1_0_0" index="87" value="0"/>
  <variable name="gamma_1_0_1" index="88" value="0"/>
  <variable name="gamma_0_1_0" index="89" value="0"/>
  <variable name="gamma_0_1_1" index="90" value="0"/>
  <variable name="gamma_0_0_0" index="91" value="0"/>
  <variable name="gamma_3_5_0" index="92" value="0"/>
  <variable name="gamma_3_5_1" index="93" value="0"/>
  <variable name="gamma_3_5_2" index="94" value="0"/>
  <variable name="gamma_3_4_0" index="95" value="0"/>
  <variable name="gamma_3_4_1" index="96" value="0"/>
  <variable name="gamma_3_3_0" index="97" value="0"/>
  <variable name="gamma_3_3_1" index="98" value="0"/>
  <variable name="gamma_3_3_2" index="99" value="0"/>
  <variable name="gamma_3_2_0" index="100" value="0"/>
  <variable name="gamma_3_2_1" index="101" value="0"/>
  <variable name="gamma_3_1_0" index="102" value="0"/>
  <variable name="gamma_3_1_1" index="103" value="0"/>
  <variable name="gamma_3_0_0" index="104" value="0"/>
  <variable name="gamma_3_0_1" index="105" value="0"/>
  <variable name="gamma_2_5_2" index="106" value="0"/>
  <variable name="gamma_2_4_2" index="107" value="0"/>
  <variable name="gamma_2_3_2" index="108" value="0"/>
  <variable name="gamma_2_2_2" index="109" value="0"/>
  <variable name="gamma_2_1_2" index="110" value="0"/>
  <variable name="gamma_2_0_2" index="111" value="0"/>
  <variable name="gamma_0_0_1" index="112" value="0"/>
  <variable name="gamma_3_4_2" index="113" value="0"/>
  <variable name="gamma_3_2_2" index="114" value="0"/>
  <variable name="gamma_3_1_2" index="115" value="0"/>
  <variable name="gamma_3_0_2" index="116" value="0"/>
  <variable name="a_0" index="117" value="1"/>
  <variable name="a_1" index="118" value="1"/>
  <variable name="a_2" index="119" value="1"/>
  <variable name="a_3" index="120" value="1"/>
  <variable name="a_4" index="121" value="1"/>
  <variable name="a_5" index="122" value="1"/>
  <variable name="a_6" index="123" value="1"/>
  <variable name="a_7" index="124" value="1"/>
  <variable name="a_8" index="125" value="1"/>
  <variable name="a_9" index="126" value="1"/>
  <variable name="a_10" index="127" value="1"/>
  <variable name="a_11" index="128" value="1"/>
  <variable name="a_12" index="129" value="1"/>
  <variable name="a_13" index="130" value="1"/>
  <variable name="a_14" index="131" value="1"/>
  <variable name="a_15" index="132" value="1"/>
  <variable name="a_16" index="133" value="1"/>
  <variable name="a_17" index="134" value="1"/>
  <variable name="a_18" index="135" value="1"/>
  <variable name="a_19" index="136" value="1"/>
  <variable name="a_20" index="137" value="1"/>
  <variable name="a_21" index="138" value="1"/>
  <variable name="a_22" index="139" value="1"/>
  <variable name="a_23" index="140" value="1"/>
  <variable name="a_24" index="141" value="1"/>
  <variable name="a_25" index="142" value="1"/>
  <variable name="a_26" index="143" value="1"/>
  <variable name="a_27" index="144" value="1"/>
  <variable name="a_28" index="145" value="1"/>
  <variable name="a_29" index="146" value="1"/>
  <variable name="a_30" index="147" value="1"/>
  <variable name="a_31" index="148" value="1"/>
  <variable name="a_32" index="149" value="1"/>
 </variables>
</CPLEXSolution>
